c Optimised CNF encoding for 4x4 Sudoku
c Source: sudoku_4x4_001.txt
c Variables: 12  Clauses: 48
p cnf 12 48
1 0
2 0
3 4 0
5 0
6 7 0
8 9 0
10 0
11 12 0
-3 -4 0
-6 -7 0
-8 -9 0
-11 -12 0
1 0
2 0
3 6 0
4 7 0
5 0
10 0
8 11 0
9 12 0
-3 -6 0
-4 -7 0
-8 -11 0
-9 -12 0
3 8 0
4 9 0
2 0
1 0
10 0
5 0
6 11 0
7 12 0
-3 -8 0
-4 -9 0
-6 -11 0
-7 -12 0
2 0
1 0
3 8 0
4 9 0
10 0
6 11 0
7 12 0
5 0
-3 -8 0
-4 -9 0
-6 -11 0
-7 -12 0
